Academic license - for non-commercial use only - expires 2022-01-02
Gurobi Optimizer version 9.1.2 build v9.1.2rc0 (linux64)
Thread count: 4 physical cores, 4 logical processors, using up to 1 threads
Optimize a model with 161 rows, 58 columns and 369 nonzeros
Model fingerprint: 0x0f4f6b6d
Model has 264 quadratic constraints
Variable types: 9 continuous, 49 integer (49 binary)
Coefficient statistics:
  Matrix range     [1e+00, 1e+00]
  QMatrix range    [1e+00, 1e+00]
  QLMatrix range   [1e+00, 2e+00]
  Objective range  [1e+00, 1e+00]
  Bounds range     [0e+00, 0e+00]
  RHS range        [1e+00, 9e+01]
  QRHS range       [1e+00, 9e+01]
Presolve removed 112 rows and 9 columns
Presolve time: 0.01s
Presolved: 191 rows, 127 columns, 647 nonzeros
Presolved model has 52 SOS constraint(s)
Variable types: 75 continuous, 52 integer (52 binary)
Found heuristic solution: objective 25.0000000
Found heuristic solution: objective 1.0000000

Root relaxation: objective 0.000000e+00, 26 iterations, 0.00 seconds

    Nodes    |    Current Node    |     Objective Bounds      |     Work
 Expl Unexpl |  Obj  Depth IntInf | Incumbent    BestBd   Gap | It/Node Time

     0     0    0.00000    0    2    1.00000    0.00000   100%     -    0s
     0     0    0.00000    0    2    1.00000    0.00000   100%     -    0s
     0     2    0.00000    0    2    1.00000    0.00000   100%     -    0s

Explored 91 nodes (136 simplex iterations) in 0.03 seconds
Thread count was 1 (of 4 available processors)

Solution count 2: 1 25 

Optimal solution found (tolerance 1.00e-04)
Best objective 1.000000000000e+00, best bound 1.000000000000e+00, gap 0.0000%

User-callback calls 253, time in user-callback 0.00 sec
Termination status: OPTIMAL
Solve time: 0.030172109603881836
